59303.5
255 263 256 239 238 237 236 235 234 233 240 232 231 230 229 228 133 132 112 111 110 109 108 107 106 105 104 92 91 103 102 101 100 99 98 97 96 95 94 93 90 81 80 82 83 84 89 88 87 86 85 79 78 77 76 75 74 73 72 71 70 64 65 66 67 69 68 57 56 55 54 53 52 51 60 61 58 59 63 62 49 50 45 44 43 41 42 40 39 38 46 47 48 31 32 33 34 35 36 37 25 26 27 28 29 30 19 18 17 16 15 14 13 20 21 22 23 24 12 11 10 9 8 7 6 5 1807 1808 4 3 2 1 0 1816 1815 1814 1813 1812 1811 1810 1809 1806 1805 1804 1803 1802 1787 1786 1785 1779 1784 1782 1783 1781 1780 1778 1777 1775 1774 1776 1536 1534 1535 1537 1538 1539 1540 1541 1542 1547 1543 1544 1546 1545 1529 1528 1527 1530 1531 1533 1532 1524 1523 1525 1526 1522 1521 1520 1519 1517 1518 1516 1512 1513 1515 1514 1506 1505 1504 1503 1502 1501 1500 1490 1488 1489 1486 1487 1485 1484 1483 1481 1482 1480 1462 1460 1461 1459 1458 1457 1446 1445 1444 1455 1456 1447 1466 1465 1464 1463 1478 1479 1477 1476 1474 1473 1475 1472 1470 1469 1471 1468 1467 1448 1454 1449 1453 1452 1450 1451 485 486 487 489 490 488 491 493 494 492 495 497 498 496 499 505 504 507 508 511 512 515 525 524 523 528 529 530 531 532 534 535 533 536 541 542 540 539 538 537 543 544 545 546 547 550 548 549 551 552 557 559 558 561 563 562 565 566 564 560 567 568 569 570 573 572 571 554 555 556 553 517 518 519 521 520 527 522 526 516 514 513 510 509 506 503 500 502 501 472 471 473 474 470 475 477 478 476 481 479 480 484 483 482 469 1435 1436 1437 1438 1439 1440 1441 1442 1443 1226 1431 1432 1433 1434 1423 1424 1425 468 1421 1422 1426 1427 1428 1429 1430 1227 1225 1224 1223 1221 1222 1220 1219 1245 1248 1247 1246 1232 1243 1244 1231 1230 1229 1228 1242 1241 1240 1414 1413 1412 1415 1416 1417 1418 1419 1420 1408 1409 1410 1411 1407 1406 1405 1404 1403 1402 1239 1238 1237 1236 1235 1234 1233 1253 1252 1251 1258 1257 1256 1255 1264 1265 1266 1267 1268 1192 1191 1193 1194 1195 1196 1254 1203 1202 1201 1200 1199 1198 1197 1208 1207 1206 1205 1204 1250 1249 1218 1217 1216 1209 1210 1211 1212 1213 1598 1597 1596 1595 1214 1215 1590 1591 1592 1593 1594 1586 1587 1588 1589 1585 1584 1583 1582 1581 1580 1579 1578 1577 1576 1575 1492 1493 1565 1574 1573 1572 1571 1570 1569 1566 1567 1568 1561 1562 1563 1564 1494 1495 1496 1491 1499 1498 1497 1507 1508 1509 1510 1511 1549 1548 1551 1552 1550 1557 1556 1555 1769 1768 1554 1553 1773 1772 1771 1764 1770 1767 1766 1763 1765 1788 1789 1790 1791 1801 1800 1799 1798 1797 1796 1795 1794 1793 1792 177 176 175 174 173 172 169 170 171 181 180 179 178 1753 1754 1762 1761 1760 1558 1559 1560 1758 1759 1757 1756 1755 1750 1751 1752 1740 1741 1742 1743 1744 1745 1746 1747 1748 1749 186 187 182 183 184 185 167 168 166 165 164 189 188 163 162 161 190 191 192 195 194 193 160 159 158 157 154 155 156 198 197 196 199 200 201 202 203 153 152 151 149 150 204 205 206 207 208 209 210 211 212 146 147 148 145 144 143 142 141 140 217 213 214 215 216 219 218 220 221 222 223 139 138 137 136 135 134 224 225 227 226 1684 1683 1682 1681 1680 1679 1675 1678 1677 1676 1687 1686 1685 1688 1689 1690 1691 1692 1693 1694 1695 1696 1697 1698 1699 1700 1710 1709 1708 1707 1706 1705 1704 1703 1702 1701 1713 1712 1711 1714 1715 1716 1717 1718 1723 1722 1721 1720 1719 1724 1725 1726 1729 1728 1727 1739 1738 1737 1736 1730 1731 1732 1733 1735 1734 1608 1607 1606 1605 1604 1603 1602 1599 1600 1601 1611 1610 1609 1612 1614 1615 1613 1616 1617 1618 1185 1186 1187 1188 1183 1189 1190 1181 1182 1184 1619 1620 1621 1628 1622 1623 1624 1627 1625 1626 1629 1630 1632 1633 1631 1634 1636 1637 1635 1638 1639 1643 1642 1640 1641 1171 1170 1169 1168 1172 1173 1174 1177 1175 1176 1179 1180 1178 1273 1274 1275 1276 1272 1271 1270 1269 1263 1262 1277 1286 1285 1284 1283 1282 1383 1384 1387 1259 1261 1260 1397 1398 1399 1400 1401 1392 1393 1394 1395 1396 1386 1385 1388 1389 1390 1391 1360 1359 1358 1345 1346 1347 1357 1356 1355 1353 1354 391 392 393 399 394 395 396 397 398 400 402 401 403 404 408 405 406 407 435 436 443 442 441 440 439 438 453 452 444 445 446 447 448 449 450 451 455 456 454 437 431 432 433 434 422 421 420 419 409 410 411 412 413 414 415 416 417 418 423 430 429 428 427 426 425 424 646 647 645 644 643 642 641 640 639 638 637 630 631 632 633 636 635 634 675 676 677 678 679 680 681 682 686 688 685 687 683 684 693 695 694 782 781 780 779 778 777 776 789 788 787 786 785 784 783 696 697 698 699 700 692 691 690 689 701 702 703 704 705 706 707 708 709 710 602 603 604 605 606 607 608 609 610 611 612 616 619 618 617 629 628 627 626 625 624 623 622 621 620 615 614 613 457 458 589 590 591 592 593 594 585 586 587 588 459 460 461 462 467 466 465 464 463 574 576 575 578 577 580 579 584 581 583 582 595 596 597 598 599 600 601 711 712 713 714 715 716 717 721 720 718 719 727 731 730 729 728 732 725 726 722 724 723 733 735 736 737 738 741 740 739 749 748 747 746 745 744 742 734 743 758 757 756 755 754 750 753 752 751 767 761 760 759 766 765 764 763 762 768 769 770 773 774 775 790 771 772 791 792 793 794 813 812 811 810 809 808 814 815 835 834 833 816 817 818 819 820 821 822 823 824 832 831 830 829 828 827 826 825 836 837 838 839 840 847 848 841 846 842 843 845 844 851 873 852 872 874 875 871 870 859 860 861 869 866 865 858 857 856 855 854 853 917 916 915 914 913 912 911 910 909 868 867 864 863 862 892 891 890 889 888 887 886 885 850 849 884 883 882 881 880 879 878 877 876 893 894 895 896 897 898 899 900 902 901 903 904 906 905 951 950 953 952 955 954 957 956 958 959 961 960 962 963 965 964 966 967 969 968 1058 1057 1059 1060 1061 1062 1064 1063 1065 1066 1068 1067 1070 1071 327 326 324 325 323 322 320 321 318 317 315 316 313 314 302 303 301 300 298 299 296 297 294 292 289 288 290 291 293 295 304 305 306 307 308 309 310 311 312 1105 1106 1107 1108 1109 1110 1111 1112 1113 1114 1115 1116 1117 1099 1100 1101 1102 1103 1104 1088 1087 1085 1086 1080 1079 1078 1077 1076 319 1073 1074 1075 1081 1082 1083 1084 332 333 334 331 330 329 328 1072 336 335 339 341 351 352 355 354 353 350 342 340 338 337 1069 343 344 345 346 347 348 349 1049 1050 1051 1052 1053 1054 1055 1056 1047 1046 1045 970 971 1044 1043 1042 1041 1048 1038 1037 1036 1040 1039 986 987 990 989 988 985 984 983 982 973 972 974 975 976 977 978 981 980 979 942 941 940 939 938 937 936 949 948 947 946 945 944 935 943 922 923 924 925 934 933 932 907 908 931 930 929 928 927 926 921 920 919 918 804 803 802 801 806 805 807 798 797 796 795 800 799 669 668 667 666 665 664 663 658 659 660 661 662 670 671 672 674 673 653 654 655 656 657 1005 1004 1003 1002 1001 1000 652 651 650 649 648 1013 1014 1010 1012 1011 1016 1017 999 998 1006 996 991 992 995 997 1007 1018 1015 1009 1008 1019 1020 994 993 1021 1022 1023 1024 1025 1026 1027 1028 1029 1030 1031 1032 1033 1034 1035 372 373 374 375 376 377 378 383 385 384 382 379 371 368 367 366 365 364 369 370 380 381 362 363 359 358 357 356 1336 1337 1338 1339 1340 1341 1342 361 360 386 387 388 389 390 1352 1351 1350 1349 1348 1344 1343 1369 1368 1367 1366 1365 1364 1363 1362 1361 1378 1379 1382 1381 1380 1281 1280 1279 1278 1287 1288 1289 1290 1291 1292 1293 1294 1295 1296 1297 1302 1301 1300 1299 1298 1140 1139 1138 1137 1143 1142 1141 1136 1135 1134 1128 1127 1303 1304 1305 1306 1307 1308 1309 1310 1317 1318 1319 1320 1335 1334 1333 1316 1315 1314 1313 1312 1311 1377 1376 1375 1374 1373 1372 1371 1370 1332 1331 1330 1329 1328 1327 1326 1325 1324 1323 1322 1321 1089 1090 1095 1096 1097 1098 1091 1094 1093 1092 1118 1119 1120 1121 1122 1126 1125 1124 1123 1129 1130 1131 1133 1132 1144 1145 1146 1148 1151 1147 1152 1154 1153 1155 1156 1157 1158 1159 1160 1161 1162 1163 1167 1164 1166 1165 1650 1649 1651 1648 1647 1652 1656 1657 1658 1661 1663 1664 1665 1150 1149 1666 1667 1669 1668 1670 1662 1660 1659 1655 1654 1653 1644 1645 1646 1674 1673 1672 1671 264 265 266 267 273 274 275 276 277 278 280 279 287 286 285 284 283 282 281 272 271 270 269 268 262 261 260 259 258 257 248 247 246 245 244 126 125 124 123 121 122 120 119 116 118 117 113 115 114 127 128 129 130 131 241 243 242 249 250 251 252 253 254 